#######################



#######################
Set parameter TimeLimit to value 500
Set parameter SoftMemLimit to value 125
Set parameter MIPFocus to value 2
Set parameter LogFile to value 1202-MIPFocus2-Presolve2-TimeLimit500-k16x240-8.log
Set parameter Presolve to value 2
Set parameter Seed to value 18
Using license file /opt/gurobi/gurobi.lic

Gurobi Optimizer version 12.0.2 build v12.0.2rc0 (linux64 - "Ubuntu 22.04.4 LTS")
Copyright (c) 2025, Gurobi Optimization, LLC

Read MPS format model from file /miplib2010/k16x240.mps.bz2
Reading time = 0.00 seconds
k16x240: 256 rows, 480 columns, 960 nonzeros

Using Gurobi shared library /nfs/shared/static-builds/gurobi1202

CPU model: Intel(R) Xeon(R) E-2388G CPU @ 3.20GHz, instruction set [SSE2|AVX|AVX2|AVX512]
Thread count: 8 physical cores, 16 logical processors, using up to 16 threads

Non-default parameters:
TimeLimit  500
SoftMemLimit  125
MIPFocus  2
Presolve  2
Seed  18

Optimize a model with 256 rows, 480 columns and 960 nonzeros
Model fingerprint: 0x4e80885f
Variable types: 240 continuous, 240 integer (240 binary)
Coefficient statistics:
  Matrix range     [1e+00, 1e+03]
  Objective range  [1e+00, 1e+03]
  Bounds range     [1e+00, 1e+03]
  RHS range        [4e+00, 4e+02]
Found heuristic solution: objective 19474.000000
Presolve time: 0.00s
Presolved: 256 rows, 480 columns, 960 nonzeros
Variable types: 240 continuous, 240 integer (240 binary)
Root relaxation presolve removed 241 rows and 240 columns
Root relaxation presolved: 15 rows, 240 columns, 450 nonzeros


Root relaxation: objective 2.769838e+03, 16 iterations, 0.00 seconds (0.00 work units)

    Nodes    |    Current Node    |     Objective Bounds      |     Work
 Expl Unexpl |  Obj  Depth IntInf | Incumbent    BestBd   Gap | It/Node Time

     0     0 2769.83800    0   14 19474.0000 2769.83800  85.8%     -    0s
H    0     0                    11359.000000 2769.83800  75.6%     -    0s
H    0     0                    11342.000000 2769.83800  75.6%     -    0s
H    0     0                    11261.000000 8116.87580  27.9%     -    0s
H    0     0                    11240.000000 8116.87580  27.8%     -    0s
H    0     0                    11041.000000 8116.87580  26.5%     -    0s
     0     0 8116.87580    0   26 11041.0000 8116.87580  26.5%     -    0s
H    0     0                    10975.000000 8161.01413  25.6%     -    0s
H    0     0                    10971.000000 8161.01413  25.6%     -    0s
H    0     0                    10909.000000 8161.01413  25.2%     -    0s
H    0     0                    10875.000000 8161.01413  25.0%     -    0s
     0     0 8588.30479    0   25 10875.0000 8588.30479  21.0%     -    0s
     0     0 8613.92228    0   22 10875.0000 8613.92228  20.8%     -    0s
     0     0 8720.59081    0   23 10875.0000 8720.59081  19.8%     -    0s
H    0     0                    10853.000000 8726.88056  19.6%     -    0s
     0     0 8841.67029    0   27 10853.0000 8841.67029  18.5%     -    0s
     0     0 8855.22353    0   40 10853.0000 8855.22353  18.4%     -    0s
     0     0 8861.18726    0   41 10853.0000 8861.18726  18.4%     -    0s
     0     0 9021.53730    0   43 10853.0000 9021.53730  16.9%     -    0s
     0     0 9032.67737    0   45 10853.0000 9032.67737  16.8%     -    0s
     0     0 9081.48712    0   28 10853.0000 9081.48712  16.3%     -    0s
     0     0 9087.24831    0   26 10853.0000 9087.24831  16.3%     -    0s
     0     0 9120.06000    0   29 10853.0000 9120.06000  16.0%     -    0s
     0     0 9120.44729    0   29 10853.0000 9120.44729  16.0%     -    0s
H    0     0                    10847.000000 9120.44729  15.9%     -    0s
H    0     2                    10844.000000 9120.44729  15.9%     -    0s
     0     2 9120.44729    0   29 10844.0000 9120.44729  15.9%     -    0s
H   40    61                    10765.000000 9136.36859  15.1%  56.1    0s
H  172   206                    10748.000000 9136.36859  15.0%  34.8    0s
H  187   206                    10678.000000 9136.36859  14.4%  33.5    0s
H 1518  1175                    10674.000000 9325.90136  12.6%  20.9    0s
 32017 11854 10310.9934   34    5 10674.0000 10034.2797  5.99%  22.7    5s
 73776 16017 10384.5107   35   18 10674.0000 10243.8404  4.03%  24.2   10s
 110575 10258     cutoff   34      10674.0000 10409.4868  2.48%  24.9   15s

Cutting planes:
  Gomory: 1
  Lift-and-project: 13
  Cover: 78
  Implied bound: 22
  Dual implied bound: 21
  MIR: 167
  Flow cover: 310
  Flow path: 47
  Inf proof: 1
  Zero half: 5
  Network: 48
  Relax-and-lift: 2

Explored 130546 nodes (3169511 simplex iterations) in 17.21 seconds (24.08 work units)
Thread count was 16 (of 16 available processors)

Solution count 10: 10674 10678 10748 ... 10971

Optimal solution found (tolerance 1.00e-04)
Best objective 1.067400000000e+04, best bound 1.067400000000e+04, gap 0.0000%
